data/MCDM/NO_CORR/GEN_FROM_60/16_ITEMS_1000_GEN/K5016W02.KNP.mps
NAME          BLANK   
ROWS
 N  OBJROW
 L  R0000000
COLUMNS
    C0000000  OBJROW     -248.         R0000000  764.        
    C0000001  OBJROW     -457.         R0000000  309.        
    C0000002  OBJROW     -393.         R0000000  862.        
    C0000003  OBJROW     -185.         R0000000  228.        
    C0000004  OBJROW     -706.         R0000000  44.         
    C0000005  OBJROW     -720.         R0000000  807.        
    C0000006  OBJROW     -800.         R0000000  155.        
    C0000007  OBJROW     -587.         R0000000  328.        
    C0000008  OBJROW     -869.         R0000000  465.        
    C0000009  OBJROW     -755.         R0000000  602.        
    C0000010  OBJROW     -848.         R0000000  719.        
    C0000011  OBJROW     -1.           R0000000  434.        
    C0000012  OBJROW     -522.         R0000000  720.        
    C0000013  OBJROW     -220.         R0000000  952.        
    C0000014  OBJROW     -255.         R0000000  383.        
    C0000015  OBJROW     -936.         R0000000  824.        
RHS
    RHS       R0000000  14144.      
BOUNDS
 BV BOUND     C0000000  1.          
 BV BOUND     C0000001  1.          
 BV BOUND     C0000002  1.          
 BV BOUND     C0000003  1.          
 BV BOUND     C0000004  1.          
 BV BOUND     C0000005  1.          
 BV BOUND     C0000006  1.          
 BV BOUND     C0000007  1.          
 BV BOUND     C0000008  1.          
 BV BOUND     C0000009  1.          
 BV BOUND     C0000010  1.          
 BV BOUND     C0000011  1.          
 BV BOUND     C0000012  1.          
 BV BOUND     C0000013  1.          
 BV BOUND     C0000014  1.          
 BV BOUND     C0000015  1.          
ENDATA
