data/MCDM/NO_CORR/GEN_FROM_60/16_ITEMS_1000_GEN/K5016W02.KNP.txt
N 16
M 17
LC 16
LC 17
LC 18
LC 19
LC 20
LC 21
LC 22
LC 23
LC 24
LC 25
LC 26
LC 27
LC 28
LC 29
LC 30
LC 31
LR 1
LR 2
LR 3
LR 4
LR 5
LR 6
LR 7
LR 8
LR 9
LR 10
LR 11
LR 12
LR 13
LR 14
LR 15
LR 16
LR 17
LO -248
LO -457
LO -393
LO -185
LO -706
LO -720
LO -800
LO -587
LO -869
LO -755
LO -848
LO -1
LO -522
LO -220
LO -255
LO -936
OS 1
IC 32
IC 531
IC 413
IC 426
IC 848
IC 315
IC 797
IC 830
IC 719
IC 992
IC 429
IC 148
IC 45
IC 368
IC 931
IC 617
IB 4221
